NAME : tsp40_1.195.tour
COMMENT : Length = 195
COMMENT : Found by LKH [Keld Helsgaun]
TYPE : TOUR
DIMENSION : 40
TOUR_SECTION
1
5
7
19
40
26
31
16
32
34
35
24
21
10
11
27
33
30
39
18
3
20
22
8
15
13
12
2
6
37
14
4
25
28
38
9
23
29
17
36
-1
EOF
